40 24
20 607
7 321
22 287
9 130
15 663
16 316
4 858
9 781
16 802
19 93
12 236
10 422
11 368
3 113
23 849
3 640
1 989
8 987
16 962
17 352
19 194
21 551
20 273
16 556
6 821
17 137
12 936
4 543
12 759
1 621
6 84
5 904
3 260
15 651
10 778
18 319
18 888
6 257
16 411
8 796
